g3 0 1 0	# problem d6n6R3R6d05d05
 6 8 1 0 3	# vars, constraints, objectives, ranges, eqns
 4 1	# nonlinear constraints, objectives
 0 0	# network constraints: nonlinear, linear
 6 6 6	# nonlinear vars in constraints, objectives, both
 0 0 0 1	# linear network variables; functions; arith, flags
 0 0 0 0 0	# discrete variables: binary, integer, nonlinear (b,c,o)
 39 6	# nonzeros in Jacobian, gradients
 0 0	# max name lengths: constraints, variables
 0 0 0 0 0	# common exprs: b,c,o,c1,o1
b
0 0.66 2.73
0 0.71 2.7
0 0.07 2.12
0 0.67 2.75
0 0.31 2.68
0 0.7 2.84
r
2 144.028
2 340.061
2 2468.29
2 7481.75
4 29.013
4 27.701
4 16.526
2 46.814
C0
o54
10
o2
o2
n7.12
v0
v0
o2
o2
n5.26
v0
v1
o2
o2
n5.87
v0
v2
o2
o2
n4.52
v1
v4
o2
o2
n1.46
v2
v3
o2
o2
n3.3
v2
v4
o2
o2
n0.36
v3
v3
o2
o2
n6.28
v3
v4
o2
o2
n3.35
v3
v5
o2
o2
n9.72
v4
v4
C1
o54
39
o2
o2
n3.95
v0
v0
o2
o2
n4.57
v0
v1
o2
o2
n6.04
v0
v2
o2
o2
n4.01
v1
v4
o2
o2
n4.03
v2
v3
o2
o2
n1.09
v2
v4
o16
o2
o2
n8.06
v3
v3
o16
o2
o2
n4.83
v3
v4
o2
o2
n9.47
v3
v5
o2
o2
n7.84
v4
v4
o16
o2
o2
o2
n5.65
v0
v0
v0
o2
o2
o2
n2.13
v0
v0
v1
o2
o2
o2
n5.07
v0
v1
v1
o16
o2
o2
o2
n7.26
v0
v1
v3
o2
o2
o2
n2.94
v0
v2
v2
o2
o2
o2
n3.52
v0
v3
v3
o2
o2
o2
n2.74
v0
v3
v4
o16
o2
o2
o2
n8.13
v0
v3
v5
o2
o2
o2
n3.86
v0
v4
v4
o16
o2
o2
o2
n7.03
v0
v4
v5
o2
o2
o2
n0.89
v1
v1
v1
o2
o2
o2
n0.34
v1
v1
v2
o2
o2
o2
n4.6
v1
v1
v3
o2
o2
o2
n4.02
v1
v2
v2
o2
o2
o2
n0.12
v1
v2
v3
o2
o2
o2
n5.84
v1
v4
v5
o2
o2
o2
n2.5
v2
v2
v3
o2
o2
o2
n8.21
v2
v2
v4
o2
o2
o2
n5.1
v2
v2
v5
o2
o2
o2
n5.87
v2
v3
v3
o2
o2
v2
v3
v4
o2
o2
o2
n1.11
v2
v3
v5
o2
o2
o2
n2.76
v2
v4
v4
o2
o2
o2
n4.45
v2
v5
v5
o2
o2
o2
n0.98
v3
v3
v4
o2
o2
o2
n3.55
v3
v4
v5
o2
o2
o2
n6.71
v3
v5
v5
o2
o2
o2
n8.09
v4
v4
v4
o2
o2
o2
n8.31
v5
v5
v5
C2
o54
106
o2
o2
n1.15
v0
v0
o2
o2
n2.19
v0
v1
o2
o2
n5.46
v0
v2
o2
o2
n9.88
v1
v4
o2
o2
n1.12
v2
v3
o2
o2
n0.64
v2
v4
o16
o2
o2
n7.58
v3
v3
o2
o2
n2.72
v3
v4
o2
o2
n0.43
v3
v5
o2
o2
n9.03
v4
v4
o2
o2
o2
n7.29
v0
v0
v0
o2
o2
o2
n1.82
v0
v0
v1
o2
o2
o2
n2.72
v0
v1
v1
o2
o2
o2
n9.88
v0
v1
v3
o2
o2
o2
n5.17
v0
v2
v2
o16
o2
o2
o2
n3.45
v0
v3
v3
o2
o2
o2
n3.73
v0
v3
v4
o2
o2
o2
n7.17
v0
v3
v5
o2
o2
o2
n7.38
v0
v4
v4
o2
o2
o2
n6.48
v0
v4
v5
o2
o2
o2
n4.79
v1
v1
v1
o2
o2
o2
n7.61
v1
v1
v2
o2
o2
o2
n7.22
v1
v1
v3
o2
o2
o2
n6.73
v1
v2
v2
o2
o2
o2
n2.53
v1
v2
v3
o2
o2
o2
n8.2
v1
v4
v5
o2
o2
o2
n3.02
v2
v2
v3
o2
o2
o2
n7.68
v2
v2
v4
o2
o2
o2
n4.89
v2
v2
v5
o2
o2
o2
n9.99
v2
v3
v3
o2
o2
o2
n2.23
v2
v3
v4
o2
o2
o2
n7.36
v2
v3
v5
o2
o2
o2
n3.28
v2
v4
v4
o2
o2
o2
n8.16
v2
v5
v5
o2
o2
o2
n1.76
v3
v3
v4
o2
o2
o2
n1.53
v3
v4
v5
o2
o2
o2
n1.14
v3
v5
v5
o2
o2
o2
n8.26
v4
v4
v4
o2
o2
o2
n4.61
v5
v5
v5
o2
o2
o2
o2
n3.08
v0
v0
v0
v0
o2
o2
o2
o2
n8.6
v0
v0
v0
v4
o2
o2
o2
o2
n8.81
v0
v0
v1
v3
o16
o2
o2
o2
o2
n2.67
v0
v0
v1
v4
o16
o2
o2
o2
o2
n7.68
v0
v0
v2
v2
o2
o2
o2
o2
n3.5
v0
v0
v2
v4
o2
o2
o2
o2
n0.03
v0
v0
v3
v5
o2
o2
o2
o2
n5.89
v0
v1
v1
v1
o2
o2
o2
o2
n5.76
v0
v1
v1
v4
o2
o2
o2
o2
n8.57
v0
v1
v2
v2
o16
o2
o2
o2
o2
n8.91
v0
v1
v2
v4
o2
o2
o2
o2
n7.56
v0
v1
v2
v5
o2
o2
o2
o2
n0.57
v0
v1
v3
v3
o2
o2
o2
o2
n4.96
v0
v1
v3
v4
o2
o2
o2
o2
n0.49
v0
v1
v3
v5
o2
o2
o2
o2
n5.97
v0
v1
v4
v5
o2
o2
o2
o2
n2.69
v0
v2
v2
v2
o2
o2
o2
o2
n1.94
v0
v2
v2
v3
o2
o2
o2
o2
n5.41
v0
v2
v2
v4
o2
o2
o2
o2
n2.24
v0
v2
v2
v5
o2
o2
o2
o2
n0.65
v0
v2
v3
v3
o2
o2
o2
o2
n2.86
v0
v2
v3
v5
o2
o2
o2
o2
n3.69
v0
v2
v4
v4
o2
o2
o2
o2
n4.4
v0
v2
v4
v5
o2
o2
o2
o2
n7.84
v0
v2
v5
v5
o2
o2
o2
o2
n7.41
v0
v3
v3
v3
o2
o2
o2
o2
n4.76
v0
v3
v3
v4
o2
o2
o2
o2
n7.78
v0
v3
v3
v5
o2
o2
o2
o2
n5.69
v0
v3
v5
v5
o2
o2
o2
o2
n0.07
v0
v4
v4
v4
o2
o2
o2
o2
n3.78
v0
v4
v4
v5
o2
o2
o2
o2
n1.58
v1
v1
v1
v1
o2
o2
o2
o2
n3.06
v1
v1
v1
v4
o2
o2
o2
o2
n4.87
v1
v1
v1
v5
o2
o2
o2
o2
n4.12
v1
v1
v2
v2
o2
o2
o2
o2
n1.75
v1
v1
v2
v3
o2
o2
o2
o2
n1.95
v1
v1
v2
v4
o2
o2
o2
o2
n6.32
v1
v1
v2
v5
o2
o2
o2
o2
n6.24
v1
v1
v3
v3
o2
o2
o2
o2
n0.07
v1
v1
v3
v5
o2
o2
o2
o2
n9.38
v1
v1
v4
v4
o2
o2
o2
o2
n6.67
v1
v1
v4
v5
o2
o2
o2
o2
n2.62
v1
v2
v2
v2
o2
o2
o2
o2
n9.49
v1
v2
v3
v4
o2
o2
o2
o2
n5.53
v1
v2
v4
v4
o2
o2
o2
o2
n9.38
v1
v2
v4
v5
o2
o2
o2
o2
n9.16
v1
v3
v3
v4
o2
o2
o2
o2
n5.77
v1
v3
v4
v4
o2
o2
o2
o2
n8.22
v1
v3
v5
v5
o2
o2
o2
o2
n8.82
v1
v4
v4
v4
o2
o2
o2
o2
n2.62
v1
v4
v4
v5
o2
o2
o2
o2
n5.32
v1
v5
v5
v5
o2
o2
o2
o2
n3.53
v2
v2
v2
v2
o16
o2
o2
o2
o2
n6.32
v2
v2
v3
v4
o2
o2
o2
o2
n4.48
v2
v2
v4
v5
o2
o2
o2
o2
n9.26
v2
v3
v3
v4
o2
o2
o2
o2
n2.69
v2
v3
v3
v5
o2
o2
o2
o2
n2.3
v2
v3
v4
v4
o2
o2
o2
o2
n0.94
v2
v3
v4
v5
o16
o2
o2
o2
o2
n3.83
v2
v4
v4
v4
o2
o2
o2
o2
n5.33
v2
v5
v5
v5
o2
o2
o2
o2
n4.82
v3
v3
v3
v5
o2
o2
o2
o2
n9.24
v3
v3
v4
v5
o2
o2
o2
o2
n6.95
v3
v4
v4
v5
o2
o2
o2
o2
n8.79
v3
v5
v5
v5
o2
o2
o2
o2
n4.26
v4
v4
v4
v4
o2
o2
o2
o2
n0.14
v4
v4
v4
v5
C3
o54
237
o2
o2
n9.3
v0
v0
o2
o2
n9.75
v0
v1
o2
o2
n5.99
v0
v2
o2
o2
n6.85
v1
v4
o16
o2
o2
n7.42
v2
v3
o16
o2
o2
n8.17
v2
v4
o2
o2
n7.58
v3
v3
o2
o2
n1.93
v3
v4
o2
o2
n0.71
v3
v5
o2
o2
n7.5
v4
v4
o2
o2
o2
n1.34
v0
v0
v0
o2
o2
o2
n8.04
v0
v0
v1
o2
o2
o2
n0.92
v0
v1
v1
o2
o2
o2
n3.16
v0
v1
v3
o2
o2
o2
n4.02
v0
v2
v2
o2
o2
o2
n6.79
v0
v3
v3
o2
o2
o2
n1.73
v0
v3
v4
o2
o2
o2
n0.62
v0
v3
v5
o2
o2
o2
n5.25
v0
v4
v4
o2
o2
o2
n8.45
v0
v4
v5
o2
o2
o2
n7.26
v1
v1
v1
o2
o2
o2
n1.69
v1
v1
v2
o2
o2
o2
n4.18
v1
v1
v3
o16
o2
o2
o2
n1.38
v1
v2
v2
o2
o2
o2
n6.78
v1
v2
v3
o2
o2
o2
n7.05
v1
v4
v5
o2
o2
o2
n2.32
v2
v2
v3
o2
o2
o2
n7.66
v2
v2
v4
o2
o2
o2
n5.69
v2
v2
v5
o2
o2
o2
n5.04
v2
v3
v3
o16
o2
o2
o2
n2.63
v2
v3
v4
o2
o2
o2
n5.02
v2
v3
v5
o2
o2
o2
n2.73
v2
v4
v4
o2
o2
o2
n6.7
v2
v5
v5
o2
o2
o2
n4.91
v3
v3
v4
o2
o2
o2
n5.02
v3
v4
v5
o2
o2
o2
n3.49
v3
v5
v5
o2
o2
o2
n7.08
v4
v4
v4
o2
o2
o2
n7.34
v5
v5
v5
o2
o2
o2
o2
n7.43
v0
v0
v0
v0
o2
o2
o2
o2
n0.12
v0
v0
v0
v4
o2
o2
o2
o2
n2.72
v0
v0
v1
v3
o16
o2
o2
o2
o2
n4.39
v0
v0
v1
v4
o2
o2
o2
o2
n0.92
v0
v0
v2
v2
o2
o2
o2
o2
n7.3
v0
v0
v2
v4
o2
o2
o2
o2
n5.52
v0
v0
v3
v5
o2
o2
o2
o2
n0.88
v0
v1
v1
v1
o2
o2
o2
o2
n9.98
v0
v1
v1
v4
o16
o2
o2
o2
o2
n4.47
v0
v1
v2
v2
o2
o2
o2
o2
n2.72
v0
v1
v2
v4
o2
o2
o2
o2
n2.37
v0
v1
v2
v5
o2
o2
o2
o2
n8.04
v0
v1
v3
v3
o2
o2
o2
o2
n4.31
v0
v1
v3
v4
o2
o2
o2
o2
n3.19
v0
v1
v3
v5
o2
o2
o2
o2
n1.72
v0
v1
v4
v5
o2
o2
o2
o2
n6.94
v0
v2
v2
v2
o2
o2
o2
o2
n7.46
v0
v2
v2
v3
o2
o2
o2
o2
n0.01
v0
v2
v2
v4
o2
o2
o2
o2
n1.97
v0
v2
v2
v5
o2
o2
o2
o2
n2.57
v0
v2
v3
v3
o16
o2
o2
o2
o2
n3.51
v0
v2
v3
v5
o2
o2
o2
o2
n9.24
v0
v2
v4
v4
o2
o2
o2
o2
n5.44
v0
v2
v4
v5
o2
o2
o2
o2
n6.78
v0
v2
v5
v5
o2
o2
o2
o2
n8.22
v0
v3
v3
v3
o16
o2
o2
o2
o2
n4.92
v0
v3
v3
v4
o2
o2
o2
o2
n9.07
v0
v3
v3
v5
o16
o2
o2
o2
o2
n5.53
v0
v3
v5
v5
o2
o2
o2
o2
n6.99
v0
v4
v4
v4
o2
o2
o2
o2
n0.43
v0
v4
v4
v5
o2
o2
o2
o2
n6.02
v1
v1
v1
v1
o2
o2
o2
o2
n3.33
v1
v1
v1
v4
o2
o2
o2
o2
n4.58
v1
v1
v1
v5
o2
o2
o2
o2
n5.97
v1
v1
v2
v2
o2
o2
o2
o2
n3.54
v1
v1
v2
v3
o2
o2
o2
o2
n3.92
v1
v1
v2
v4
o2
o2
o2
o2
n1.11
v1
v1
v2
v5
o2
o2
o2
o2
n2.38
v1
v1
v3
v3
o16
o2
o2
o2
o2
n7.06
v1
v1
v3
v5
o2
o2
o2
o2
n7.13
v1
v1
v4
v4
o2
o2
o2
o2
n4.29
v1
v1
v4
v5
o2
o2
o2
o2
n1.16
v1
v2
v2
v2
o16
o2
o2
o2
o2
n0.52
v1
v2
v3
v4
o2
o2
o2
o2
n2.08
v1
v2
v4
v4
o2
o2
o2
o2
n7.85
v1
v2
v4
v5
o2
o2
o2
o2
n0.78
v1
v3
v3
v4
o2
o2
o2
o2
n3.03
v1
v3
v4
v4
o16
o2
o2
o2
o2
n6.59
v1
v3
v5
v5
o2
o2
o2
o2
n6.32
v1
v4
v4
v4
o2
o2
o2
o2
n9.21
v1
v4
v4
v5
o2
o2
o2
o2
n1.65
v1
v5
v5
v5
o2
o2
o2
o2
n2.84
v2
v2
v2
v2
o2
o2
o2
o2
n5.96
v2
v2
v3
v4
o2
o2
o2
o2
n2.7
v2
v2
v4
v5
o2
o2
o2
o2
n0.54
v2
v3
v3
v4
o16
o2
o2
o2
o2
n9.3
v2
v3
v3
v5
o2
o2
o2
o2
n2.05
v2
v3
v4
v4
o2
o2
o2
o2
n0.82
v2
v3
v4
v5
o2
o2
o2
o2
n6.3
v2
v4
v4
v4
o2
o2
o2
o2
n8.85
v2
v5
v5
v5
o2
o2
o2
o2
n2.29
v3
v3
v3
v5
o2
o2
o2
o2
n7.78
v3
v3
v4
v5
o2
o2
o2
o2
n9.57
v3
v4
v4
v5
o2
o2
o2
o2
n3.25
v3
v5
v5
v5
o2
o2
o2
o2
n6.59
v4
v4
v4
v4
o2
o2
o2
o2
n9.92
v4
v4
v4
v5
o2
o2
o2
o2
o2
n2.88
v0
v0
v0
v0
v1
o2
o2
o2
o2
o2
n3.77
v0
v0
v0
v0
v4
o2
o2
o2
o2
o2
n2.99
v0
v0
v0
v1
v1
o2
o2
o2
o2
o2
n9.52
v0
v0
v0
v1
v3
o2
o2
o2
o2
o2
n4.75
v0
v0
v0
v2
v2
o2
o2
o2
o2
o2
n8.11
v0
v0
v0
v2
v3
o2
o2
o2
o2
o2
n9.95
v0
v0
v0
v2
v4
o2
o2
o2
o2
o2
n4.88
v0
v0
v0
v3
v5
o2
o2
o2
o2
o2
n0.04
v0
v0
v1
v1
v1
o2
o2
o2
o2
o2
n3.56
v0
v0
v1
v1
v3
o2
o2
o2
o2
o2
n4.78
v0
v0
v1
v2
v2
o2
o2
o2
o2
o2
n6.52
v0
v0
v1
v2
v4
o2
o2
o2
o2
o2
n6.56
v0
v0
v1
v2
v5
o16
o2
o2
o2
o2
o2
n6.44
v0
v0
v1
v4
v4
o2
o2
o2
o2
o2
n8.36
v0
v0
v1
v4
v5
o2
o2
o2
o2
o2
n9.82
v0
v0
v1
v5
v5
o2
o2
o2
o2
o2
n7.92
v0
v0
v2
v2
v3
o2
o2
o2
o2
o2
n7.71
v0
v0
v2
v2
v5
o2
o2
o2
o2
o2
n6.18
v0
v0
v2
v3
v4
o2
o2
o2
o2
o2
n3.73
v0
v0
v2
v3
v5
o2
o2
o2
o2
o2
n2.63
v0
v0
v2
v4
v5
o2
o2
o2
o2
o2
n4.95
v0
v0
v2
v5
v5
o2
o2
o2
o2
o2
n5.49
v0
v0
v3
v3
v3
o2
o2
o2
o2
o2
n5.84
v0
v0
v3
v3
v5
o2
o2
o2
o2
o2
n9.44
v0
v0
v4
v4
v5
o2
o2
o2
o2
o2
n0.49
v0
v0
v5
v5
v5
o2
o2
o2
o2
o2
n8.81
v0
v1
v1
v1
v1
o2
o2
o2
o2
o2
n3.68
v0
v1
v1
v1
v2
o2
o2
o2
o2
o2
n8.96
v0
v1
v1
v1
v4
o16
o2
o2
o2
o2
o2
n5.8
v0
v1
v1
v2
v5
o2
o2
o2
o2
o2
n3.68
v0
v1
v1
v3
v3
o2
o2
o2
o2
o2
n2.23
v0
v1
v1
v3
v4
o2
o2
o2
o2
o2
n1.5
v0
v1
v1
v4
v5
o2
o2
o2
o2
o2
n2.21
v0
v1
v1
v5
v5
o2
o2
o2
o2
o2
n8.58
v0
v1
v2
v3
v4
o2
o2
o2
o2
o2
n7.76
v0
v1
v2
v4
v4
o2
o2
o2
o2
o2
n1.17
v0
v1
v3
v4
v5
o2
o2
o2
o2
o2
n7.78
v0
v1
v3
v5
v5
o2
o2
o2
o2
o2
n5.23
v0
v1
v4
v4
v4
o2
o2
o2
o2
o2
n7.79
v0
v1
v4
v5
v5
o2
o2
o2
o2
o2
n6.26
v0
v2
v2
v2
v4
o2
o2
o2
o2
o2
n0.48
v0
v2
v2
v2
v5
o2
o2
o2
o2
o2
n6.98
v0
v2
v2
v3
v3
o2
o2
o2
o2
o2
n7.46
v0
v2
v2
v3
v5
o2
o2
o2
o2
o2
n5.78
v0
v2
v2
v5
v5
o2
o2
o2
o2
o2
n7.59
v0
v2
v3
v3
v3
o2
o2
o2
o2
o2
n3.63
v0
v2
v3
v3
v5
o16
o2
o2
o2
o2
o2
n2.02
v0
v2
v3
v4
v5
o2
o2
o2
o2
o2
n2.39
v0
v2
v3
v5
v5
o16
o2
o2
o2
o2
o2
n1.41
v0
v2
v4
v4
v5
o2
o2
o2
o2
o2
n2.31
v0
v2
v4
v5
v5
o2
o2
o2
o2
o2
n5.62
v0
v3
v3
v3
v3
o2
o2
o2
o2
o2
n1.43
v0
v3
v3
v3
v4
o2
o2
o2
o2
o2
n1.11
v0
v3
v3
v4
v5
o2
o2
o2
o2
o2
n4.8
v0
v3
v3
v5
v5
o2
o2
o2
o2
o2
n6.39
v0
v3
v4
v4
v4
o2
o2
o2
o2
o2
n6.32
v0
v3
v4
v5
v5
o2
o2
o2
o2
o2
n0.93
v0
v3
v5
v5
v5
o2
o2
o2
o2
o2
n0.93
v0
v4
v4
v4
v4
o16
o2
o2
o2
o2
o2
n7.67
v0
v4
v4
v5
v5
o16
o2
o2
o2
o2
o2
n0.13
v0
v4
v5
v5
v5
o2
o2
o2
o2
o2
n4.6
v0
v5
v5
v5
v5
o2
o2
o2
o2
o2
n8.37
v1
v1
v1
v1
v1
o2
o2
o2
o2
o2
n5.6
v1
v1
v1
v1
v2
o2
o2
o2
o2
o2
n3.46
v1
v1
v1
v1
v5
o2
o2
o2
o2
o2
n5.98
v1
v1
v1
v2
v4
o2
o2
o2
o2
o2
n8.54
v1
v1
v1
v2
v5
o2
o2
o2
o2
o2
n2.89
v1
v1
v1
v3
v5
o2
o2
o2
o2
o2
n8.53
v1
v1
v1
v4
v4
o2
o2
o2
o2
o2
n6.01
v1
v1
v2
v2
v3
o16
o2
o2
o2
o2
o2
n8.89
v1
v1
v2
v4
v4
o2
o2
o2
o2
o2
n8.83
v1
v1
v2
v4
v5
o2
o2
o2
o2
o2
n9.5
v1
v1
v2
v5
v5
o2
o2
o2
o2
o2
n5.81
v1
v1
v3
v3
v3
o16
o2
o2
o2
o2
o2
n1.37
v1
v1
v3
v3
v4
o2
o2
o2
o2
o2
n5.65
v1
v1
v3
v4
v4
o2
o2
o2
o2
o2
n9.14
v1
v1
v3
v5
v5
o2
o2
o2
o2
o2
n6.18
v1
v1
v4
v4
v4
o2
o2
o2
o2
o2
n7.12
v1
v1
v4
v4
v5
o2
o2
o2
o2
o2
n0.98
v1
v1
v4
v5
v5
o2
o2
o2
o2
o2
n1.62
v1
v2
v2
v2
v2
o2
o2
o2
o2
o2
n3.18
v1
v2
v2
v2
v4
o2
o2
o2
o2
o2
n7.5
v1
v2
v2
v2
v5
o2
o2
o2
o2
o2
n6.68
v1
v2
v2
v3
v3
o2
o2
o2
o2
o2
n1.64
v1
v2
v2
v3
v4
o16
o2
o2
o2
o2
o2
n0.12
v1
v2
v3
v3
v3
o2
o2
o2
o2
o2
n1.26
v1
v2
v3
v3
v4
o2
o2
o2
o2
o2
n3.9
v1
v2
v3
v4
v4
o2
o2
o2
o2
o2
n9.76
v1
v2
v3
v4
v5
o2
o2
o2
o2
o2
n5.65
v1
v2
v3
v5
v5
o16
o2
o2
o2
o2
o2
n8.06
v1
v2
v4
v4
v4
o2
o2
o2
o2
o2
n4.31
v1
v2
v4
v4
v5
o2
o2
o2
o2
o2
n4.04
v1
v2
v4
v5
v5
o2
o2
o2
o2
o2
n8.25
v1
v3
v3
v3
v3
o2
o2
o2
o2
o2
n8.18
v1
v3
v3
v3
v4
o2
o2
o2
o2
o2
n7.7
v1
v3
v3
v4
v5
o16
o2
o2
o2
o2
o2
n7.86
v1
v3
v4
v4
v5
o2
o2
o2
o2
o2
n6.82
v1
v3
v4
v5
v5
o2
o2
o2
o2
o2
n8.49
v1
v3
v5
v5
v5
o2
o2
o2
o2
o2
n5.71
v1
v4
v4
v4
v4
o2
o2
o2
o2
o2
n4.02
v1
v4
v4
v4
v5
o16
o2
o2
o2
o2
o2
n7.65
v1
v4
v5
v5
v5
o2
o2
o2
o2
o2
n4.71
v2
v2
v2
v2
v2
o2
o2
o2
o2
o2
n1.93
v2
v2
v2
v2
v3
o2
o2
o2
o2
o2
n5.11
v2
v2
v2
v3
v4
o2
o2
o2
o2
o2
n7.55
v2
v2
v2
v3
v5
o16
o2
o2
o2
o2
o2
n9.83
v2
v2
v2
v4
v4
o2
o2
o2
o2
o2
n8.14
v2
v2
v2
v4
v5
o2
o2
o2
o2
o2
n0.1
v2
v2
v3
v4
v5
o2
o2
o2
o2
o2
n3.3
v2
v2
v5
v5
v5
o2
o2
o2
o2
o2
n8.88
v2
v3
v3
v4
v4
o16
o2
o2
o2
o2
o2
n6.88
v2
v3
v3
v4
v5
o2
o2
o2
o2
o2
n7.21
v2
v3
v3
v5
v5
o2
o2
o2
o2
o2
n7.27
v2
v3
v4
v4
v4
o2
o2
o2
o2
o2
n9.89
v2
v4
v4
v4
v4
o2
o2
o2
o2
o2
n0.21
v2
v4
v4
v5
v5
o2
o2
o2
o2
o2
n2.97
v2
v4
v5
v5
v5
o16
o2
o2
o2
o2
o2
n9.35
v2
v5
v5
v5
v5
o2
o2
o2
o2
o2
n1.13
v3
v3
v3
v3
v3
o2
o2
o2
o2
o2
n4.8
v3
v3
v3
v3
v4
o2
o2
o2
o2
o2
n7.61
v3
v3
v3
v3
v5
o2
o2
o2
o2
o2
n5.16
v3
v3
v3
v4
v4
o2
o2
o2
o2
o2
n4.57
v3
v3
v3
v4
v5
o2
o2
o2
o2
o2
n3.16
v3
v3
v4
v4
v4
o2
o2
o2
o2
o2
n6.66
v3
v3
v4
v4
v5
o2
o2
o2
o2
o2
n0.37
v3
v3
v5
v5
v5
o2
o2
o2
o2
o2
n5.62
v3
v4
v4
v4
v4
o2
o2
o2
o2
o2
n1.19
v3
v4
v4
v5
v5
o2
o2
o2
o2
o2
n8.78
v3
v5
v5
v5
v5
o2
o2
o2
o2
o2
n1.46
v4
v4
v4
v4
v4
o2
o2
o2
o2
o2
n9.1
v4
v4
v4
v5
v5
C4
n0
C5
n0
C6
n0
C7
n0
O0 0
o54
458
o2
o2
n8.19
v0
v0
o2
o2
n6.98
v0
v1
o2
o2
n1.5
v0
v2
o2
o2
n8.21
v1
v4
o2
o2
n8.05
v2
v3
o2
o2
n6.86
v2
v4
o2
o2
n6.57
v3
v3
o2
o2
n1.24
v3
v4
o2
o2
n9.87
v3
v5
o16
o2
o2
n8.45
v4
v4
o2
o2
o2
n7.98
v0
v0
v0
o16
o2
o2
o2
n5
v0
v0
v1
o2
o2
o2
n6.74
v0
v1
v1
o2
o2
o2
n6.97
v0
v1
v3
o2
o2
o2
n1.02
v0
v2
v2
o2
o2
o2
n0.97
v0
v3
v3
o2
o2
o2
n6.45
v0
v3
v4
o2
o2
o2
n2.72
v0
v3
v5
o2
o2
o2
n8.93
v0
v4
v4
o2
o2
o2
n4.69
v0
v4
v5
o2
o2
o2
n5.79
v1
v1
v1
o2
o2
o2
n9.35
v1
v1
v2
o2
o2
o2
n7.79
v1
v1
v3
o2
o2
o2
n9.69
v1
v2
v2
o2
o2
o2
n6.03
v1
v2
v3
o2
o2
o2
n3.44
v1
v4
v5
o2
o2
o2
n2.65
v2
v2
v3
o2
o2
o2
n2.7
v2
v2
v4
o2
o2
o2
n9.71
v2
v2
v5
o2
o2
o2
n5.36
v2
v3
v3
o2
o2
o2
n4.91
v2
v3
v4
o2
o2
o2
n0.09
v2
v3
v5
o2
o2
o2
n8.61
v2
v4
v4
o2
o2
o2
n1.28
v2
v5
v5
o2
o2
o2
n0.93
v3
v3
v4
o2
o2
o2
n5.57
v3
v4
v5
o2
o2
o2
n3.05
v3
v5
v5
o2
o2
o2
n6.55
v4
v4
v4
o2
o2
o2
n1.95
v5
v5
v5
o2
o2
o2
o2
n9.13
v0
v0
v0
v0
o2
o2
o2
o2
n2.36
v0
v0
v0
v4
o2
o2
o2
o2
n0.23
v0
v0
v1
v3
o2
o2
o2
o2
n5.22
v0
v0
v1
v4
o2
o2
o2
o2
n7.23
v0
v0
v2
v2
o2
o2
o2
o2
n6.64
v0
v0
v2
v4
o2
o2
o2
o2
n0.91
v0
v0
v3
v5
o2
o2
o2
o2
n6.35
v0
v1
v1
v1
o2
o2
o2
o2
n4.25
v0
v1
v1
v4
o2
o2
o2
o2
n9.81
v0
v1
v2
v2
o2
o2
o2
o2
n3.82
v0
v1
v2
v4
o2
o2
o2
o2
n2.97
v0
v1
v2
v5
o2
o2
o2
o2
n5.19
v0
v1
v3
v3
o2
o2
o2
o2
n3.81
v0
v1
v3
v4
o2
o2
o2
o2
n9.09
v0
v1
v3
v5
o2
o2
o2
o2
n9.61
v0
v1
v4
v5
o2
o2
o2
o2
n9.62
v0
v2
v2
v2
o2
o2
o2
o2
n4.15
v0
v2
v2
v3
o2
o2
o2
o2
n1.38
v0
v2
v2
v4
o2
o2
o2
o2
n3.81
v0
v2
v2
v5
o2
o2
o2
o2
n6.85
v0
v2
v3
v3
o2
o2
o2
o2
n6.66
v0
v2
v3
v5
o2
o2
o2
o2
n0.66
v0
v2
v4
v4
o2
o2
o2
o2
n3.56
v0
v2
v4
v5
o16
o2
o2
o2
o2
n2.4
v0
v2
v5
v5
o2
o2
o2
o2
n5.47
v0
v3
v3
v3
o2
o2
o2
o2
n4.3
v0
v3
v3
v4
o2
o2
o2
o2
n5.85
v0
v3
v3
v5
o2
o2
o2
o2
n5.69
v0
v3
v5
v5
o2
o2
o2
o2
n2.32
v0
v4
v4
v4
o2
o2
o2
o2
n0.39
v0
v4
v4
v5
o2
o2
o2
o2
n6.63
v1
v1
v1
v1
o16
o2
o2
o2
o2
n8.98
v1
v1
v1
v4
o2
o2
o2
o2
n7
v1
v1
v1
v5
o2
o2
o2
o2
n2.28
v1
v1
v2
v2
o2
o2
o2
o2
n1.89
v1
v1
v2
v3
o2
o2
o2
o2
n7.58
v1
v1
v2
v4
o2
o2
o2
o2
n9.19
v1
v1
v2
v5
o2
o2
o2
o2
n4.44
v1
v1
v3
v3
o2
o2
o2
o2
n0.07
v1
v1
v3
v5
o2
o2
o2
o2
n1.27
v1
v1
v4
v4
o2
o2
o2
o2
n1.37
v1
v1
v4
v5
o2
o2
o2
o2
n9.54
v1
v2
v2
v2
o2
o2
o2
o2
n5.68
v1
v2
v3
v4
o16
o2
o2
o2
o2
n7.01
v1
v2
v4
v4
o16
o2
o2
o2
o2
n3.17
v1
v2
v4
v5
o2
o2
o2
o2
n6.69
v1
v3
v3
v4
o16
o2
o2
o2
o2
n4.2
v1
v3
v4
v4
o2
o2
o2
o2
n2.89
v1
v3
v5
v5
o2
o2
o2
o2
n6.83
v1
v4
v4
v4
o2
o2
o2
o2
n1.12
v1
v4
v4
v5
o2
o2
o2
o2
n8.2
v1
v5
v5
v5
o2
o2
o2
o2
n3.31
v2
v2
v2
v2
o2
o2
o2
o2
n3.96
v2
v2
v3
v4
o2
o2
o2
o2
n4.91
v2
v2
v4
v5
o16
o2
o2
o2
o2
n4.71
v2
v3
v3
v4
o2
o2
o2
o2
n5.44
v2
v3
v3
v5
o2
o2
o2
o2
n3.56
v2
v3
v4
v4
o2
o2
o2
o2
n9.11
v2
v3
v4
v5
o2
o2
o2
o2
n3.87
v2
v4
v4
v4
o2
o2
o2
o2
n6.93
v2
v5
v5
v5
o2
o2
o2
o2
n1.26
v3
v3
v3
v5
o2
o2
o2
o2
n7.05
v3
v3
v4
v5
o2
o2
o2
o2
n8.83
v3
v4
v4
v5
o2
o2
o2
o2
n4.8
v3
v5
v5
v5
o2
o2
o2
o2
n9.85
v4
v4
v4
v4
o2
o2
o2
o2
n8.91
v4
v4
v4
v5
o2
o2
o2
o2
o2
n6.83
v0
v0
v0
v0
v1
o2
o2
o2
o2
o2
n5.69
v0
v0
v0
v0
v4
o2
o2
o2
o2
o2
n1.04
v0
v0
v0
v1
v1
o2
o2
o2
o2
o2
n7.51
v0
v0
v0
v1
v3
o2
o2
o2
o2
o2
n1.64
v0
v0
v0
v2
v2
o2
o2
o2
o2
o2
n7.29
v0
v0
v0
v2
v3
o2
o2
o2
o2
o2
n8.42
v0
v0
v0
v2
v4
o2
o2
o2
o2
o2
n5.45
v0
v0
v0
v3
v5
o2
o2
o2
o2
o2
n7.16
v0
v0
v1
v1
v1
o2
o2
o2
o2
o2
n1.02
v0
v0
v1
v1
v3
o2
o2
o2
o2
o2
n1.79
v0
v0
v1
v2
v2
o2
o2
o2
o2
o2
n3.34
v0
v0
v1
v2
v4
o2
o2
o2
o2
o2
n2.31
v0
v0
v1
v2
v5
o2
o2
o2
o2
o2
n6
v0
v0
v1
v4
v4
o2
o2
o2
o2
o2
n2.6
v0
v0
v1
v4
v5
o2
o2
o2
o2
o2
n9.47
v0
v0
v1
v5
v5
o2
o2
o2
o2
o2
n7.16
v0
v0
v2
v2
v3
o2
o2
o2
o2
o2
n4.21
v0
v0
v2
v2
v5
o2
o2
o2
o2
o2
n0.77
v0
v0
v2
v3
v4
o2
o2
o2
o2
o2
n0.53
v0
v0
v2
v3
v5
o2
o2
o2
o2
o2
n0.33
v0
v0
v2
v4
v5
o2
o2
o2
o2
o2
n6.99
v0
v0
v2
v5
v5
o2
o2
o2
o2
o2
n2.65
v0
v0
v3
v3
v3
o16
o2
o2
o2
o2
o2
n3.77
v0
v0
v3
v3
v5
o2
o2
o2
o2
o2
n7.58
v0
v0
v4
v4
v5
o2
o2
o2
o2
o2
n2.67
v0
v0
v5
v5
v5
o2
o2
o2
o2
o2
n0.28
v0
v1
v1
v1
v1
o2
o2
o2
o2
o2
n0.24
v0
v1
v1
v1
v2
o2
o2
o2
o2
o2
n1.77
v0
v1
v1
v1
v4
o2
o2
o2
o2
o2
n5.58
v0
v1
v1
v2
v5
o2
o2
o2
o2
o2
n1.94
v0
v1
v1
v3
v3
o2
o2
o2
o2
o2
n9.44
v0
v1
v1
v3
v4
o2
o2
o2
o2
o2
n3.89
v0
v1
v1
v4
v5
o2
o2
o2
o2
o2
n6.18
v0
v1
v1
v5
v5
o2
o2
o2
o2
o2
n3.85
v0
v1
v2
v3
v4
o2
o2
o2
o2
o2
n5.06
v0
v1
v2
v4
v4
o2
o2
o2
o2
o2
n5.54
v0
v1
v3
v4
v5
o2
o2
o2
o2
o2
n2.55
v0
v1
v3
v5
v5
o2
o2
o2
o2
o2
n3.25
v0
v1
v4
v4
v4
o2
o2
o2
o2
o2
n2.12
v0
v1
v4
v5
v5
o2
o2
o2
o2
o2
n2.5
v0
v2
v2
v2
v4
o16
o2
o2
o2
o2
o2
n3.1
v0
v2
v2
v2
v5
o2
o2
o2
o2
o2
n2.57
v0
v2
v2
v3
v3
o16
o2
o2
o2
o2
o2
n5.24
v0
v2
v2
v3
v5
o2
o2
o2
o2
o2
n9.64
v0
v2
v2
v5
v5
o2
o2
o2
o2
o2
n0.45
v0
v2
v3
v3
v3
o2
o2
o2
o2
o2
n5.01
v0
v2
v3
v3
v5
o2
o2
o2
o2
o2
n8.26
v0
v2
v3
v4
v5
o2
o2
o2
o2
o2
n7.04
v0
v2
v3
v5
v5
o2
o2
o2
o2
o2
n6.69
v0
v2
v4
v4
v5
o2
o2
o2
o2
o2
n1.26
v0
v2
v4
v5
v5
o16
o2
o2
o2
o2
o2
n4.99
v0
v3
v3
v3
v3
o2
o2
o2
o2
o2
n7.38
v0
v3
v3
v3
v4
o2
o2
o2
o2
o2
n9.79
v0
v3
v3
v4
v5
o2
o2
o2
o2
o2
n7.53
v0
v3
v3
v5
v5
o2
o2
o2
o2
o2
n1.34
v0
v3
v4
v4
v4
o2
o2
o2
o2
o2
n4.59
v0
v3
v4
v5
v5
o16
o2
o2
o2
o2
o2
n1.31
v0
v3
v5
v5
v5
o2
o2
o2
o2
o2
n4.79
v0
v4
v4
v4
v4
o2
o2
o2
o2
o2
n8.65
v0
v4
v4
v5
v5
o2
o2
o2
o2
o2
n3.67
v0
v4
v5
v5
v5
o2
o2
o2
o2
o2
n5.33
v0
v5
v5
v5
v5
o2
o2
o2
o2
o2
n9.29
v1
v1
v1
v1
v1
o2
o2
o2
o2
o2
n8.18
v1
v1
v1
v1
v2
o2
o2
o2
o2
o2
n1.93
v1
v1
v1
v1
v5
o2
o2
o2
o2
o2
n8.67
v1
v1
v1
v2
v4
o16
o2
o2
o2
o2
o2
n4.3
v1
v1
v1
v2
v5
o2
o2
o2
o2
o2
n7.02
v1
v1
v1
v3
v5
o2
o2
o2
o2
o2
n1.25
v1
v1
v1
v4
v4
o16
o2
o2
o2
o2
o2
n2.32
v1
v1
v2
v2
v3
o16
o2
o2
o2
o2
o2
n3.13
v1
v1
v2
v4
v4
o2
o2
o2
o2
o2
n5.11
v1
v1
v2
v4
v5
o2
o2
o2
o2
o2
n1.81
v1
v1
v2
v5
v5
o2
o2
o2
o2
o2
n4.13
v1
v1
v3
v3
v3
o2
o2
o2
o2
o2
n3.42
v1
v1
v3
v3
v4
o2
o2
o2
o2
o2
n3.58
v1
v1
v3
v4
v4
o2
o2
o2
o2
o2
n6.93
v1
v1
v3
v5
v5
o2
o2
o2
o2
o2
n2.75
v1
v1
v4
v4
v4
o2
o2
o2
o2
o2
n2.57
v1
v1
v4
v4
v5
o2
o2
o2
o2
o2
n4.29
v1
v1
v4
v5
v5
o2
o2
o2
o2
o2
n9.19
v1
v2
v2
v2
v2
o2
o2
o2
o2
o2
n2.86
v1
v2
v2
v2
v4
o2
o2
o2
o2
o2
n4.58
v1
v2
v2
v2
v5
o2
o2
o2
o2
o2
n0.7
v1
v2
v2
v3
v3
o2
o2
o2
o2
o2
n7.86
v1
v2
v2
v3
v4
o2
o2
o2
o2
o2
n1.59
v1
v2
v3
v3
v3
o2
o2
o2
o2
o2
n7.99
v1
v2
v3
v3
v4
o2
o2
o2
o2
o2
n9.9
v1
v2
v3
v4
v4
o2
o2
o2
o2
o2
n7.47
v1
v2
v3
v4
v5
o2
o2
o2
o2
o2
n6.2
v1
v2
v3
v5
v5
o2
o2
o2
o2
o2
n5.21
v1
v2
v4
v4
v4
o2
o2
o2
o2
o2
n5.96
v1
v2
v4
v4
v5
o2
o2
o2
o2
o2
n7.77
v1
v2
v4
v5
v5
o2
o2
o2
o2
o2
n3.06
v1
v3
v3
v3
v3
o2
o2
o2
o2
o2
n2.95
v1
v3
v3
v3
v4
o2
o2
o2
o2
o2
n4.46
v1
v3
v3
v4
v5
o2
o2
o2
o2
o2
n4.78
v1
v3
v4
v4
v5
o2
o2
o2
o2
o2
n7.81
v1
v3
v4
v5
v5
o2
o2
o2
o2
o2
n4.03
v1
v3
v5
v5
v5
o2
o2
o2
o2
o2
n8.35
v1
v4
v4
v4
v4
o2
o2
o2
o2
o2
n3.23
v1
v4
v4
v4
v5
o2
o2
o2
o2
o2
n6.85
v1
v4
v5
v5
v5
o2
o2
o2
o2
o2
n0.37
v2
v2
v2
v2
v2
o2
o2
o2
o2
o2
n5
v2
v2
v2
v2
v3
o16
o2
o2
o2
o2
o2
n0.18
v2
v2
v2
v3
v4
o2
o2
o2
o2
o2
n9.98
v2
v2
v2
v3
v5
o2
o2
o2
o2
o2
n7.25
v2
v2
v2
v4
v4
o2
o2
o2
o2
o2
n4.54
v2
v2
v2
v4
v5
o2
o2
o2
o2
o2
n9.89
v2
v2
v3
v4
v5
o2
o2
o2
o2
o2
n4.4
v2
v2
v5
v5
v5
o2
o2
o2
o2
o2
n8.83
v2
v3
v3
v4
v4
o2
o2
o2
o2
o2
n9.39
v2
v3
v3
v4
v5
o2
o2
o2
o2
o2
n9.96
v2
v3
v3
v5
v5
o2
o2
o2
o2
o2
n9.87
v2
v3
v4
v4
v4
o2
o2
o2
o2
o2
n4.88
v2
v4
v4
v4
v4
o2
o2
o2
o2
o2
n5.12
v2
v4
v4
v5
v5
o2
o2
o2
o2
o2
n8.71
v2
v4
v5
v5
v5
o2
o2
o2
o2
o2
n5.15
v2
v5
v5
v5
v5
o2
o2
o2
o2
o2
n8.82
v3
v3
v3
v3
v3
o2
o2
o2
o2
o2
n2.51
v3
v3
v3
v3
v4
o2
o2
o2
o2
o2
n3.85
v3
v3
v3
v3
v5
o16
o2
o2
o2
o2
o2
n5.74
v3
v3
v3
v4
v4
o2
o2
o2
o2
o2
n6.94
v3
v3
v3
v4
v5
o2
o2
o2
o2
o2
n0.87
v3
v3
v4
v4
v4
o16
o2
o2
o2
o2
o2
n2.27
v3
v3
v4
v4
v5
o2
o2
o2
o2
o2
n2.76
v3
v3
v5
v5
v5
o2
o2
o2
o2
o2
n8.95
v3
v4
v4
v4
v4
o16
o2
o2
o2
o2
o2
n2.58
v3
v4
v4
v5
v5
o2
o2
o2
o2
o2
n1.3
v3
v5
v5
v5
v5
o2
o2
o2
o2
o2
n3.21
v4
v4
v4
v4
v4
o16
o2
o2
o2
o2
o2
n9.7
v4
v4
v4
v5
v5
o2
o2
o2
o2
o2
o2
n8.98
v0
v0
v0
v0
v0
v2
o2
o2
o2
o2
o2
o2
n0.96
v0
v0
v0
v0
v0
v3
o2
o2
o2
o2
o2
o2
n1.38
v0
v0
v0
v0
v0
v4
o2
o2
o2
o2
o2
o2
n2.23
v0
v0
v0
v0
v0
v5
o2
o2
o2
o2
o2
o2
n7.35
v0
v0
v0
v0
v1
v1
o2
o2
o2
o2
o2
o2
n7.71
v0
v0
v0
v0
v1
v2
o2
o2
o2
o2
o2
o2
n1.54
v0
v0
v0
v0
v1
v3
o2
o2
o2
o2
o2
o2
n1.98
v0
v0
v0
v0
v2
v5
o2
o2
o2
o2
o2
o2
n9.32
v0
v0
v0
v0
v3
v3
o2
o2
o2
o2
o2
o2
n9.24
v0
v0
v0
v0
v3
v4
o2
o2
o2
o2
o2
o2
n1.91
v0
v0
v0
v1
v1
v2
o2
o2
o2
o2
o2
o2
n2.33
v0
v0
v0
v1
v1
v4
o2
o2
o2
o2
o2
o2
n0.37
v0
v0
v0
v1
v1
v5
o2
o2
o2
o2
o2
o2
n0.69
v0
v0
v0
v1
v2
v5
o2
o2
o2
o2
o2
o2
n9.83
v0
v0
v0
v1
v3
v3
o2
o2
o2
o2
o2
o2
n1.35
v0
v0
v0
v1
v3
v4
o2
o2
o2
o2
o2
o2
n0.69
v0
v0
v0
v1
v4
v4
o2
o2
o2
o2
o2
o2
n1.93
v0
v0
v0
v2
v2
v2
o2
o2
o2
o2
o2
o2
n8.23
v0
v0
v0
v2
v2
v5
o2
o2
o2
o2
o2
o2
n9.79
v0
v0
v0
v2
v3
v5
o2
o2
o2
o2
o2
o2
n7.24
v0
v0
v0
v2
v4
v5
o2
o2
o2
o2
o2
o2
n6.3
v0
v0
v0
v3
v4
v4
o2
o2
o2
o2
o2
o2
n3.29
v0
v0
v0
v3
v5
v5
o2
o2
o2
o2
o2
o2
n0.39
v0
v0
v1
v1
v1
v1
o16
o2
o2
o2
o2
o2
o2
n7.07
v0
v0
v1
v1
v1
v3
o16
o2
o2
o2
o2
o2
o2
n0.41
v0
v0
v1
v1
v1
v5
o2
o2
o2
o2
o2
o2
n3.45
v0
v0
v1
v1
v2
v4
o16
o2
o2
o2
o2
o2
o2
n8.32
v0
v0
v1
v1
v2
v5
o16
o2
o2
o2
o2
o2
o2
n1.87
v0
v0
v1
v1
v3
v3
o2
o2
o2
o2
o2
o2
n5.33
v0
v0
v1
v1
v3
v4
o2
o2
o2
o2
o2
o2
n9.52
v0
v0
v1
v1
v4
v4
o16
o2
o2
o2
o2
o2
o2
n2.99
v0
v0
v1
v1
v4
v5
o2
o2
o2
o2
o2
o2
n3.85
v0
v0
v1
v1
v5
v5
o2
o2
o2
o2
o2
o2
n8.91
v0
v0
v1
v2
v3
v4
o2
o2
o2
o2
o2
o2
n6.18
v0
v0
v1
v2
v4
v4
o2
o2
o2
o2
o2
o2
n1.01
v0
v0
v1
v2
v4
v5
o2
o2
o2
o2
o2
o2
n2.72
v0
v0
v1
v3
v3
v3
o2
o2
o2
o2
o2
o2
n9.49
v0
v0
v1
v3
v3
v4
o2
o2
o2
o2
o2
o2
n4.69
v0
v0
v1
v3
v4
v4
o2
o2
o2
o2
o2
o2
n0.51
v0
v0
v1
v4
v4
v4
o2
o2
o2
o2
o2
o2
n4.11
v0
v0
v2
v2
v2
v3
o2
o2
o2
o2
o2
o2
n0.72
v0
v0
v2
v2
v2
v5
o2
o2
o2
o2
o2
o2
n6.78
v0
v0
v2
v2
v3
v5
o2
o2
o2
o2
o2
o2
n6.59
v0
v0
v2
v2
v4
v4
o2
o2
o2
o2
o2
o2
n9.05
v0
v0
v2
v2
v4
v5
o2
o2
o2
o2
o2
o2
n7.73
v0
v0
v2
v3
v3
v3
o2
o2
o2
o2
o2
o2
n9.88
v0
v0
v2
v3
v3
v4
o2
o2
o2
o2
o2
o2
n8.12
v0
v0
v2
v5
v5
v5
o2
o2
o2
o2
o2
o2
n4.85
v0
v0
v3
v3
v3
v3
o2
o2
o2
o2
o2
o2
n4.48
v0
v0
v3
v3
v3
v5
o2
o2
o2
o2
o2
o2
n3.57
v0
v0
v3
v3
v4
v4
o2
o2
o2
o2
o2
o2
n5.7
v0
v0
v3
v3
v4
v5
o2
o2
o2
o2
o2
o2
n7.15
v0
v0
v3
v3
v5
v5
o2
o2
o2
o2
o2
o2
n2.44
v0
v0
v3
v4
v4
v5
o16
o2
o2
o2
o2
o2
o2
n7.25
v0
v0
v3
v4
v5
v5
o2
o2
o2
o2
o2
o2
n0.98
v0
v0
v3
v5
v5
v5
o2
o2
o2
o2
o2
o2
n3.25
v0
v0
v4
v4
v4
v4
o2
o2
o2
o2
o2
o2
n0.41
v0
v0
v4
v4
v5
v5
o2
o2
o2
o2
o2
o2
n9.12
v0
v0
v5
v5
v5
v5
o2
o2
o2
o2
o2
o2
n7.11
v0
v1
v1
v1
v1
v1
o2
o2
o2
o2
o2
o2
n6.65
v0
v1
v1
v1
v1
v2
o2
o2
o2
o2
o2
o2
n5.72
v0
v1
v1
v1
v2
v2
o2
o2
o2
o2
o2
o2
n6.34
v0
v1
v1
v1
v2
v5
o2
o2
o2
o2
o2
o2
n0.54
v0
v1
v1
v1
v3
v5
o2
o2
o2
o2
o2
o2
n2.9
v0
v1
v1
v1
v4
v5
o2
o2
o2
o2
o2
o2
n6.55
v0
v1
v1
v2
v2
v4
o2
o2
o2
o2
o2
o2
n6.5
v0
v1
v1
v2
v2
v5
o2
o2
o2
o2
o2
o2
n3.99
v0
v1
v1
v2
v3
v3
o2
o2
o2
o2
o2
o2
n6.69
v0
v1
v1
v2
v3
v4
o2
o2
o2
o2
o2
o2
n5.62
v0
v1
v1
v2
v4
v4
o16
o2
o2
o2
o2
o2
o2
n0.3
v0
v1
v1
v2
v5
v5
o2
o2
o2
o2
o2
o2
n0.75
v0
v1
v1
v3
v3
v5
o16
o2
o2
o2
o2
o2
o2
n0.1
v0
v1
v1
v3
v4
v4
o2
o2
o2
o2
o2
o2
n5.04
v0
v1
v1
v3
v5
v5
o2
o2
o2
o2
o2
o2
n5.51
v0
v1
v1
v5
v5
v5
o2
o2
o2
o2
o2
o2
n0.16
v0
v1
v2
v2
v2
v2
o2
o2
o2
o2
o2
o2
n2.24
v0
v1
v2
v2
v2
v3
o2
o2
o2
o2
o2
o2
n2.43
v0
v1
v2
v2
v2
v5
o16
o2
o2
o2
o2
o2
o2
n2.14
v0
v1
v2
v2
v3
v3
o16
o2
o2
o2
o2
o2
o2
n4.36
v0
v1
v2
v2
v3
v4
o2
o2
o2
o2
o2
o2
n0.04
v0
v1
v2
v2
v4
v5
o16
o2
o2
o2
o2
o2
o2
n8.34
v0
v1
v2
v2
v5
v5
o2
o2
o2
o2
o2
o2
n8.93
v0
v1
v2
v3
v3
v3
o2
o2
o2
o2
o2
o2
n6.33
v0
v1
v2
v3
v4
v4
o2
o2
o2
o2
o2
o2
n0.31
v0
v1
v2
v3
v5
v5
o16
o2
o2
o2
o2
o2
o2
n4.85
v0
v1
v2
v4
v4
v5
o2
o2
o2
o2
o2
o2
n0.99
v0
v1
v2
v5
v5
v5
o2
o2
o2
o2
o2
o2
n9.11
v0
v1
v3
v3
v3
v3
o2
o2
o2
o2
o2
o2
n3.1
v0
v1
v3
v3
v3
v4
o2
o2
o2
o2
o2
o2
n5.48
v0
v1
v3
v3
v3
v5
o2
o2
o2
o2
o2
o2
n8.79
v0
v1
v3
v3
v4
v4
o2
o2
o2
o2
o2
o2
n6.34
v0
v1
v3
v3
v4
v5
o2
o2
o2
o2
o2
o2
n6.21
v0
v1
v3
v3
v5
v5
o2
o2
o2
o2
o2
o2
n6.31
v0
v1
v3
v4
v4
v4
o2
o2
o2
o2
o2
o2
n8.33
v0
v1
v3
v5
v5
v5
o2
o2
o2
o2
o2
o2
n4.02
v0
v1
v4
v4
v4
v4
o2
o2
o2
o2
o2
o2
n1.09
v0
v1
v4
v4
v4
v5
o2
o2
o2
o2
o2
o2
n8.36
v0
v1
v4
v5
v5
v5
o2
o2
o2
o2
o2
o2
n2.6
v0
v1
v5
v5
v5
v5
o2
o2
o2
o2
o2
o2
n3.46
v0
v2
v2
v2
v2
v3
o2
o2
o2
o2
o2
o2
n9.81
v0
v2
v2
v2
v2
v4
o2
o2
o2
o2
o2
o2
n1.21
v0
v2
v2
v2
v2
v5
o2
o2
o2
o2
o2
o2
n4.26
v0
v2
v2
v2
v3
v3
o2
o2
o2
o2
o2
o2
n5.62
v0
v2
v2
v2
v3
v4
o2
o2
o2
o2
o2
o2
n3.48
v0
v2
v2
v2
v4
v4
o2
o2
o2
o2
o2
o2
n7.92
v0
v2
v2
v3
v3
v5
o2
o2
o2
o2
o2
o2
n9.61
v0
v2
v2
v3
v4
v4
o2
o2
o2
o2
o2
o2
n6.57
v0
v2
v2
v3
v5
v5
o2
o2
o2
o2
o2
o2
n1.76
v0
v2
v2
v4
v5
v5
o2
o2
o2
o2
o2
o2
n1.14
v0
v2
v2
v5
v5
v5
o2
o2
o2
o2
o2
o2
n3.75
v0
v2
v3
v3
v5
v5
o16
o2
o2
o2
o2
o2
o2
n4.24
v0
v2
v3
v4
v4
v4
o2
o2
o2
o2
o2
o2
n3.7
v0
v2
v3
v4
v5
v5
o2
o2
o2
o2
o2
o2
n0.47
v0
v2
v3
v5
v5
v5
o2
o2
o2
o2
o2
o2
n7.07
v0
v2
v4
v4
v4
v4
o2
o2
o2
o2
o2
o2
n6.46
v0
v2
v4
v4
v4
v5
o2
o2
o2
o2
o2
o2
n9.79
v0
v2
v4
v4
v5
v5
o2
o2
o2
o2
o2
o2
n1.14
v0
v2
v5
v5
v5
v5
o2
o2
o2
o2
o2
o2
n2.89
v0
v3
v3
v3
v3
v3
o2
o2
o2
o2
o2
o2
n0.19
v0
v3
v3
v3
v4
v5
o16
o2
o2
o2
o2
o2
o2
n5.31
v0
v3
v3
v4
v4
v4
o2
o2
o2
o2
o2
o2
n3.86
v0
v3
v4
v4
v4
v5
o2
o2
o2
o2
o2
o2
n6.45
v0
v3
v4
v5
v5
v5
o2
o2
o2
o2
o2
o2
n2.06
v0
v3
v5
v5
v5
v5
o2
o2
o2
o2
o2
o2
n4.9
v0
v4
v5
v5
v5
v5
o2
o2
o2
o2
o2
o2
n5.97
v1
v1
v1
v1
v1
v3
o2
o2
o2
o2
o2
o2
n5.1
v1
v1
v1
v1
v1
v5
o2
o2
o2
o2
o2
o2
n0.08
v1
v1
v1
v1
v4
v5
o2
o2
o2
o2
o2
o2
n8.33
v1
v1
v1
v2
v2
v2
o2
o2
o2
o2
o2
o2
n3.81
v1
v1
v1
v2
v2
v3
o2
o2
o2
o2
o2
o2
n9.72
v1
v1
v1
v2
v2
v4
o2
o2
o2
o2
o2
o2
n6.7
v1
v1
v1
v2
v2
v5
o2
o2
o2
o2
o2
o2
n7.66
v1
v1
v1
v2
v3
v3
o2
o2
o2
o2
o2
o2
n6.35
v1
v1
v1
v2
v3
v5
o16
o2
o2
o2
o2
o2
o2
n7.44
v1
v1
v1
v2
v4
v5
o2
o2
o2
o2
o2
o2
n3.02
v1
v1
v1
v3
v3
v3
o2
o2
o2
o2
o2
o2
n5.45
v1
v1
v1
v3
v3
v4
o2
o2
o2
o2
o2
o2
n0.1
v1
v1
v1
v3
v3
v5
o2
o2
o2
o2
o2
o2
n5.58
v1
v1
v1
v3
v4
v4
o2
o2
o2
o2
o2
o2
n4.35
v1
v1
v1
v4
v4
v4
o2
o2
o2
o2
o2
o2
n4.43
v1
v1
v1
v4
v5
v5
o2
o2
o2
o2
o2
o2
n5.2
v1
v1
v1
v5
v5
v5
o2
o2
o2
o2
o2
o2
n6.84
v1
v1
v2
v2
v2
v5
o16
o2
o2
o2
o2
o2
o2
n6.91
v1
v1
v2
v2
v3
v4
o2
o2
o2
o2
o2
o2
n8.27
v1
v1
v2
v2
v4
v4
o2
o2
o2
o2
o2
o2
n2.85
v1
v1
v2
v2
v4
v5
o2
o2
o2
o2
o2
o2
n5.73
v1
v1
v2
v3
v3
v3
o2
o2
o2
o2
o2
o2
n5.88
v1
v1
v2
v3
v4
v4
o2
o2
o2
o2
o2
o2
n3.65
v1
v1
v2
v4
v5
v5
o2
o2
o2
o2
o2
o2
n3.9
v1
v1
v3
v3
v3
v4
o2
o2
o2
o2
o2
o2
n6.32
v1
v1
v3
v3
v4
v4
o2
o2
o2
o2
o2
o2
n4.64
v1
v1
v3
v3
v5
v5
o2
o2
o2
o2
o2
o2
n3.58
v1
v1
v3
v4
v4
v4
o16
o2
o2
o2
o2
o2
o2
n8.76
v1
v1
v3
v4
v4
v5
o2
o2
o2
o2
o2
o2
n1.11
v1
v1
v4
v4
v4
v4
o2
o2
o2
o2
o2
o2
n5.29
v1
v1
v4
v4
v4
v5
o2
o2
o2
o2
o2
o2
n2.01
v1
v1
v4
v4
v5
v5
o16
o2
o2
o2
o2
o2
o2
n8.53
v1
v1
v5
v5
v5
v5
o2
o2
o2
o2
o2
o2
n1.28
v1
v2
v2
v2
v2
v2
o2
o2
o2
o2
o2
o2
n0.39
v1
v2
v2
v2
v3
v3
o2
o2
o2
o2
o2
o2
n9.59
v1
v2
v2
v2
v5
v5
o2
o2
o2
o2
o2
o2
n7.36
v1
v2
v2
v3
v3
v3
o2
o2
o2
o2
o2
o2
n8.12
v1
v2
v2
v3
v3
v5
o2
o2
o2
o2
o2
o2
n5.99
v1
v2
v2
v3
v4
v5
o16
o2
o2
o2
o2
o2
o2
n0.79
v1
v2
v3
v3
v3
v3
o16
o2
o2
o2
o2
o2
o2
n6.13
v1
v2
v3
v3
v3
v5
o2
o2
o2
o2
o2
o2
n5.72
v1
v2
v3
v4
v4
v5
o2
o2
o2
o2
o2
o2
n5.87
v1
v2
v3
v4
v5
v5
o2
o2
o2
o2
o2
o2
n2.19
v1
v2
v3
v5
v5
v5
o2
o2
o2
o2
o2
o2
n7.28
v1
v2
v4
v4
v5
v5
o2
o2
o2
o2
o2
o2
n4.93
v1
v2
v5
v5
v5
v5
o2
o2
o2
o2
o2
o2
n7.04
v1
v3
v3
v3
v3
v4
o2
o2
o2
o2
o2
o2
n2.07
v1
v3
v3
v4
v4
v5
o2
o2
o2
o2
o2
o2
n0.96
v1
v3
v3
v5
v5
v5
o2
o2
o2
o2
o2
o2
n8.52
v1
v3
v4
v4
v4
v5
o2
o2
o2
o2
o2
o2
n6.53
v1
v4
v4
v4
v4
v5
o2
o2
o2
o2
o2
o2
n1.2
v1
v4
v4
v5
v5
v5
o2
o2
o2
o2
o2
o2
n2.45
v1
v4
v5
v5
v5
v5
o2
o2
o2
o2
o2
o2
n7.68
v2
v2
v2
v2
v2
v3
o2
o2
o2
o2
o2
o2
n9.37
v2
v2
v2
v2
v2
v4
o16
o2
o2
o2
o2
o2
o2
n4.95
v2
v2
v2
v2
v2
v5
o16
o2
o2
o2
o2
o2
o2
n0.73
v2
v2
v2
v2
v3
v3
o16
o2
o2
o2
o2
o2
o2
n9.67
v2
v2
v2
v2
v4
v4
o2
o2
o2
o2
o2
o2
n7.86
v2
v2
v2
v3
v3
v4
o2
o2
o2
o2
o2
o2
n6.6
v2
v2
v2
v3
v4
v4
o2
o2
o2
o2
o2
o2
n8.4
v2
v2
v2
v3
v4
v5
o2
o2
o2
o2
o2
o2
n6.77
v2
v2
v2
v4
v4
v5
o2
o2
o2
o2
o2
o2
n2.07
v2
v2
v2
v4
v5
v5
o2
o2
o2
o2
o2
o2
n1.87
v2
v2
v3
v3
v3
v4
o2
o2
o2
o2
o2
o2
n2.84
v2
v2
v3
v3
v4
v4
o2
o2
o2
o2
o2
o2
n6.5
v2
v2
v3
v3
v4
v5
o2
o2
o2
o2
o2
o2
n1.61
v2
v2
v3
v3
v5
v5
o2
o2
o2
o2
o2
o2
n4.8
v2
v2
v3
v4
v4
v4
o2
o2
o2
o2
o2
o2
n8.51
v2
v2
v3
v4
v4
v5
o2
o2
o2
o2
o2
o2
n3.05
v2
v2
v3
v4
v5
v5
o2
o2
o2
o2
o2
o2
n8.63
v2
v2
v3
v5
v5
v5
o2
o2
o2
o2
o2
o2
n4.79
v2
v2
v4
v4
v4
v4
o2
o2
o2
o2
o2
o2
n0.66
v2
v2
v4
v4
v4
v5
o2
o2
o2
o2
o2
o2
n9.98
v2
v2
v5
v5
v5
v5
o2
o2
o2
o2
o2
o2
n2.07
v2
v3
v3
v3
v3
v4
o2
o2
o2
o2
o2
o2
n4.9
v2
v3
v3
v4
v4
v4
o2
o2
o2
o2
o2
o2
n0.19
v2
v3
v3
v4
v4
v5
o2
o2
o2
o2
o2
o2
n4.15
v2
v3
v3
v5
v5
v5
o2
o2
o2
o2
o2
o2
n3.17
v2
v3
v4
v4
v4
v4
o2
o2
o2
o2
o2
o2
n1.48
v2
v3
v4
v5
v5
v5
o2
o2
o2
o2
o2
o2
n9.78
v2
v4
v4
v4
v4
v4
o2
o2
o2
o2
o2
o2
n0.94
v2
v4
v4
v4
v5
v5
o2
o2
o2
o2
o2
o2
n2.26
v2
v4
v5
v5
v5
v5
o2
o2
o2
o2
o2
o2
n4.92
v2
v5
v5
v5
v5
v5
o2
o2
o2
o2
o2
o2
n1.25
v3
v3
v3
v3
v4
v4
o2
o2
o2
o2
o2
o2
n0.67
v3
v3
v3
v3
v5
v5
o2
o2
o2
o2
o2
o2
n6.72
v3
v3
v3
v4
v4
v5
o2
o2
o2
o2
o2
o2
n1.77
v3
v3
v4
v4
v5
v5
o2
o2
o2
o2
o2
o2
n4.23
v3
v3
v4
v5
v5
v5
o2
o2
o2
o2
o2
o2
n6.31
v3
v3
v5
v5
v5
v5
o2
o2
o2
o2
o2
o2
n0.26
v3
v4
v4
v4
v4
v4
o2
o2
o2
o2
o2
o2
n8.05
v3
v4
v4
v5
v5
v5
o2
o2
o2
o2
o2
o2
n6.02
v3
v4
v5
v5
v5
v5
o2
o2
o2
o2
o2
o2
n2.43
v4
v4
v4
v4
v4
v5
o2
o2
o2
o2
o2
o2
n3.44
v4
v4
v4
v4
v5
v5
o2
o2
o2
o2
o2
o2
n3.79
v4
v5
v5
v5
v5
v5
k5
6
14
20
26
32
J0 6
0 8.4
1 4.79
2 8.53
3 2.82
4 1.49
5 -5.62
J1 6
0 9.57
1 -0.3
2 8.34
3 3.74
4 8.95
5 5.92
J2 6
0 3.58
1 7.86
2 1.76
3 7.57
4 0.54
5 1.39
J3 6
0 1.11
1 3.87
2 4.34
3 6.81
4 2.41
5 6.68
J4 3
1 4.78
3 5.4
5 6.57
J5 3
0 5.03
1 5.81
4 6.2
J6 3
1 2.65
2 9.77
5 0.74
J7 6
0 5.08
1 9.01
2 4.77
3 2.7
4 5.76
5 2.48
G0 6
0 8.37
1 3.73
2 8.95
3 1.55
4 1.78
5 5.77
